c turning on binary mode checking
c parsing input formula with 259840 variables and 1039929 clauses
c finished parsing, read 2905913 bytes from proof file
c detected empty clause; start verification via backward checking
c 2405 of 1039929 clauses in core                            
c 754 of 113691 lemmas in core using 14224 resolution steps
c 0 RAT lemmas in core; 36 redundant literals in core lemmas
s VERIFIED
c verification time: 1.193 seconds
